c Source: TUDataset MUTAG, graph #12
c Original: n=20, m=23
c Augmented: +9 edges, n=23 -> m=32, circuit_rank=10
c Augmented to satisfy Eulerian condition (no parallel edges)
p sp 23
e 1 10
e 6 18
e 18 20
e 8 9
e 7 16
e 4 5
e 13 14
e 13 17
e 14 15
e 9 10
e 18 19
e 10 11
e 5 6
e 6 7
e 3 8
e 15 16
e 1 2
e 11 12
e 2 3
e 7 8
e 3 4
e 12 13
e 9 14
e 3 21
e 8 21
e 6 22
e 18 22
e 7 9
e 10 14
e 13 23
e 17 23
e 19 20
